objective value:                                   -4
t_n_9                                               1 	(obj:-1)
t_n_1192                                            1 	(obj:-1)
t_n_1246                                            1 	(obj:-1)
t_n_1323                                            1 	(obj:-1)
